&INPUTPP
    outdir = './SCRATCH/'
    fildos = 'tetrahedra.dos'
/

