&INPUTPP
    outdir = './SCRATCH/'
    fildos = 'smearing.dos'
/

