&inputpp
  outdir   = './SCRATCH/'
  filproj  = 'projwfc.dat'
  filpdos  = 'projwfc'
/
